# Solution for model r3_t18_m1_2
# Finished Task: 16 / 18
# Makespan: 709.0, Total Distance: 849.0, Total Time: 0.2267
# R O S F
0 0 16 0.0 0.0
1 1 5 0.0 0.0
2 2 15 0.0 0.0
3 0 19 492.0 520.0
4 2 18 437.0 474.0
5 1 17 282.0 317.0
6 1 12 471.0 497.0
7 2 11 346.0 371.0
8 -1 -1 -1.0 -1.0
9 2 -1 571.0 591.0
10 1 -1 689.0 709.0
11 2 4 405.0 437.0
12 1 14 511.0 535.0
13 0 3 413.0 447.0
14 1 10 603.0 626.0
15 2 7 288.0 326.0
16 0 13 303.0 323.0
17 1 6 378.0 417.0
18 2 9 527.0 554.0
19 0 -1 596.0 623.0
20 -1 -1 -1.0 -1.0
